ATOMIC_SPECIES
Al 26.982 Al.pbe-n-kjpaw_psl.1.0.0.UPF
N 14.007 N.pbe-n-kjpaw_psl.1.0.0.UPF
Ti 47.867 Ti.pbe-spn-kjpaw_psl.1.0.0.UPF

CELL_PARAMETERS angstrom
8.31 0.0 0.0
0.0 8.31 0.0
0.0 0.0 8.31

ATOMIC_POSITIONS angstrom
Al 0.0 0.0 0.0
N 2.0775 0.0 0.0
Al 0.0 2.0775 2.0775
N 2.0775 2.0775 2.0775
Ti 2.0775 0.0 2.0775
N 0.0 0.0 2.0775
Ti 2.0775 2.0775 0.0
N 0.0 2.0775 0.0
Al 0.0 0.0 4.155
N 2.0775 0.0 4.155
Ti 0.0 2.0775 6.2325
N 2.0775 2.0775 6.2325
Ti 2.0775 0.0 6.2325
N 0.0 0.0 6.2325
Al 2.0775 2.0775 4.155
N 0.0 2.0775 4.155
Al 0.0 4.155 0.0
N 2.0775 4.155 0.0
Al 0.0 6.2325 2.0775
N 2.0775 6.2325 2.0775
Al 2.0775 4.155 2.0775
N 0.0 4.155 2.0775
Ti 2.0775 6.2325 0.0
N 0.0 6.2325 0.0
Ti 0.0 4.155 4.155
N 2.0775 4.155 4.155
Ti 0.0 6.2325 6.2325
N 2.0775 6.2325 6.2325
Ti 2.0775 4.155 6.2325
N 0.0 4.155 6.2325
Al 2.0775 6.2325 4.155
N 0.0 6.2325 4.155
Al 4.155 0.0 0.0
N 6.2325 0.0 0.0
Al 4.155 2.0775 2.0775
N 6.2325 2.0775 2.0775
Al 6.2325 0.0 2.0775
N 4.155 0.0 2.0775
Ti 6.2325 2.0775 0.0
N 4.155 2.0775 0.0
Ti 4.155 0.0 4.155
N 6.2325 0.0 4.155
Ti 4.155 2.0775 6.2325
N 6.2325 2.0775 6.2325
Ti 6.2325 0.0 6.2325
N 4.155 0.0 6.2325
Al 6.2325 2.0775 4.155
N 4.155 2.0775 4.155
Ti 4.155 4.155 0.0
N 6.2325 4.155 0.0
Al 4.155 6.2325 2.0775
N 6.2325 6.2325 2.0775
Al 6.2325 4.155 2.0775
N 4.155 4.155 2.0775
Al 6.2325 6.2325 0.0
N 4.155 6.2325 0.0
Ti 4.155 4.155 4.155
N 6.2325 4.155 4.155
Ti 4.155 6.2325 6.2325
N 6.2325 6.2325 6.2325
Al 6.2325 4.155 6.2325
N 4.155 4.155 6.2325
Ti 6.2325 6.2325 4.155
N 4.155 6.2325 4.155

K_POINTS automatic
2 2 2 0 0 0
