ATOMIC_SPECIES
Al 26.982 Al.pbe-n-kjpaw_psl.1.0.0.UPF
N 14.007 N.pbe-n-kjpaw_psl.1.0.0.UPF
Ti 47.867 Ti.pbe-spn-kjpaw_psl.1.0.0.UPF

CELL_PARAMETERS angstrom
8.4375 0.0 0.0
0.0 8.4375 0.0
0.0 0.0 8.4375

ATOMIC_POSITIONS angstrom
Ti 0.0 0.0 0.0
N 2.109375 0.0 0.0
Ti 0.0 2.109375 2.109375
N 2.109375 2.109375 2.109375
Ti 2.109375 0.0 2.109375
N 0.0 0.0 2.109375
Ti 2.109375 2.109375 0.0
N 0.0 2.109375 0.0
Ti 0.0 0.0 4.21875
N 2.109375 0.0 4.21875
Al 0.0 2.109375 6.328125
N 2.109375 2.109375 6.328125
Ti 2.109375 0.0 6.328125
N 0.0 0.0 6.328125
Al 2.109375 2.109375 4.21875
N 0.0 2.109375 4.21875
Ti 0.0 4.21875 0.0
N 2.109375 4.21875 0.0
Ti 0.0 6.328125 2.109375
N 2.109375 6.328125 2.109375
Ti 2.109375 4.21875 2.109375
N 0.0 4.21875 2.109375
Ti 2.109375 6.328125 0.0
N 0.0 6.328125 0.0
Ti 0.0 4.21875 4.21875
N 2.109375 4.21875 4.21875
Ti 0.0 6.328125 6.328125
N 2.109375 6.328125 6.328125
Ti 2.109375 4.21875 6.328125
N 0.0 4.21875 6.328125
Ti 2.109375 6.328125 4.21875
N 0.0 6.328125 4.21875
Al 4.21875 0.0 0.0
N 6.328125 0.0 0.0
Al 4.21875 2.109375 2.109375
N 6.328125 2.109375 2.109375
Ti 6.328125 0.0 2.109375
N 4.21875 0.0 2.109375
Ti 6.328125 2.109375 0.0
N 4.21875 2.109375 0.0
Ti 4.21875 0.0 4.21875
N 6.328125 0.0 4.21875
Ti 4.21875 2.109375 6.328125
N 6.328125 2.109375 6.328125
Ti 6.328125 0.0 6.328125
N 4.21875 0.0 6.328125
Ti 6.328125 2.109375 4.21875
N 4.21875 2.109375 4.21875
Ti 4.21875 4.21875 0.0
N 6.328125 4.21875 0.0
Ti 4.21875 6.328125 2.109375
N 6.328125 6.328125 2.109375
Ti 6.328125 4.21875 2.109375
N 4.21875 4.21875 2.109375
Ti 6.328125 6.328125 0.0
N 4.21875 6.328125 0.0
Ti 4.21875 4.21875 4.21875
N 6.328125 4.21875 4.21875
Ti 4.21875 6.328125 6.328125
N 6.328125 6.328125 6.328125
Ti 6.328125 4.21875 6.328125
N 4.21875 4.21875 6.328125
Ti 6.328125 6.328125 4.21875
N 4.21875 6.328125 4.21875

K_POINTS automatic
2 2 2 0 0 0
