ATOMIC_SPECIES
Al 26.982 Al.pbe-n-kjpaw_psl.1.0.0.UPF
N 14.007 N.pbe-n-kjpaw_psl.1.0.0.UPF
Ti 47.867 Ti.pbe-spn-kjpaw_psl.1.0.0.UPF

CELL_PARAMETERS angstrom
8.352500000000001 0.0 0.0
0.0 8.352500000000001 0.0
0.0 0.0 8.352500000000001

ATOMIC_POSITIONS angstrom
Al 0.0 0.0 0.0
N 2.0881250000000002 0.0 0.0
Ti 0.0 2.0881250000000002 2.0881250000000002
N 2.0881250000000002 2.0881250000000002 2.0881250000000002
Ti 2.0881250000000002 0.0 2.0881250000000002
N 0.0 0.0 2.0881250000000002
Ti 2.0881250000000002 2.0881250000000002 0.0
N 0.0 2.0881250000000002 0.0
Ti 0.0 0.0 4.1762500000000005
N 2.0881250000000002 0.0 4.1762500000000005
Ti 0.0 2.0881250000000002 6.264375000000003
N 2.0881250000000002 2.0881250000000002 6.264375000000003
Al 2.0881250000000002 0.0 6.264375000000003
N 0.0 0.0 6.264375000000003
Ti 2.0881250000000002 2.0881250000000002 4.1762500000000005
N 0.0 2.0881250000000002 4.1762500000000005
Al 0.0 4.1762500000000005 0.0
N 2.0881250000000002 4.1762500000000005 0.0
Ti 0.0 6.264375000000003 2.0881250000000002
N 2.0881250000000002 6.264375000000003 2.0881250000000002
Ti 2.0881250000000002 4.1762500000000005 2.0881250000000002
N 0.0 4.1762500000000005 2.0881250000000002
Ti 2.0881250000000002 6.264375000000003 0.0
N 0.0 6.264375000000003 0.0
Al 0.0 4.1762500000000005 4.1762500000000005
N 2.0881250000000002 4.1762500000000005 4.1762500000000005
Al 0.0 6.264375000000003 6.264375000000003
N 2.0881250000000002 6.264375000000003 6.264375000000003
Ti 2.0881250000000002 4.1762500000000005 6.264375000000003
N 0.0 4.1762500000000005 6.264375000000003
Al 2.0881250000000002 6.264375000000003 4.1762500000000005
N 0.0 6.264375000000003 4.1762500000000005
Ti 4.1762500000000005 0.0 0.0
N 6.264375000000003 0.0 0.0
Ti 4.1762500000000005 2.0881250000000002 2.0881250000000002
N 6.264375000000003 2.0881250000000002 2.0881250000000002
Al 6.264375000000003 0.0 2.0881250000000002
N 4.1762500000000005 0.0 2.0881250000000002
Ti 6.264375000000003 2.0881250000000002 0.0
N 4.1762500000000005 2.0881250000000002 0.0
Ti 4.1762500000000005 0.0 4.1762500000000005
N 6.264375000000003 0.0 4.1762500000000005
Ti 4.1762500000000005 2.0881250000000002 6.264375000000003
N 6.264375000000003 2.0881250000000002 6.264375000000003
Al 6.264375000000003 0.0 6.264375000000003
N 4.1762500000000005 0.0 6.264375000000003
Ti 6.264375000000003 2.0881250000000002 4.1762500000000005
N 4.1762500000000005 2.0881250000000002 4.1762500000000005
Ti 4.1762500000000005 4.1762500000000005 0.0
N 6.264375000000003 4.1762500000000005 0.0
Al 4.1762500000000005 6.264375000000003 2.0881250000000002
N 6.264375000000003 6.264375000000003 2.0881250000000002
Al 6.264375000000003 4.1762500000000005 2.0881250000000002
N 4.1762500000000005 4.1762500000000005 2.0881250000000002
Al 6.264375000000003 6.264375000000003 0.0
N 4.1762500000000005 6.264375000000003 0.0
Ti 4.1762500000000005 4.1762500000000005 4.1762500000000005
N 6.264375000000003 4.1762500000000005 4.1762500000000005
Ti 4.1762500000000005 6.264375000000003 6.264375000000003
N 6.264375000000003 6.264375000000003 6.264375000000003
Al 6.264375000000003 4.1762500000000005 6.264375000000003
N 4.1762500000000005 4.1762500000000005 6.264375000000003
Ti 6.264375000000003 6.264375000000003 4.1762500000000005
N 4.1762500000000005 6.264375000000003 4.1762500000000005

K_POINTS automatic
2 2 2 0 0 0
