ATOMIC_SPECIES
Al 26.982 Al.pbe-n-kjpaw_psl.1.0.0.UPF
N 14.007 N.pbe-n-kjpaw_psl.1.0.0.UPF
Ti 47.867 Ti.pbe-spn-kjpaw_psl.1.0.0.UPF

CELL_PARAMETERS angstrom
8.225000000000001 0.0 0.0
0.0 8.225000000000001 0.0
0.0 0.0 8.225000000000001

ATOMIC_POSITIONS angstrom
Al 0.0 0.0 0.0
N 2.0562500000000004 0.0 0.0
Al 0.0 2.0562500000000004 2.0562500000000004
N 2.0562500000000004 2.0562500000000004 2.0562500000000004
Al 2.0562500000000004 0.0 2.0562500000000004
N 0.0 0.0 2.0562500000000004
Al 2.0562500000000004 2.0562500000000004 0.0
N 0.0 2.0562500000000004 0.0
Al 0.0 0.0 4.112500000000001
N 2.0562500000000004 0.0 4.112500000000001
Al 0.0 2.0562500000000004 6.168750000000001
N 2.0562500000000004 2.0562500000000004 6.168750000000001
Al 2.0562500000000004 0.0 6.168750000000001
N 0.0 0.0 6.168750000000001
Ti 2.0562500000000004 2.0562500000000004 4.112500000000001
N 0.0 2.0562500000000004 4.112500000000001
Al 0.0 4.112500000000001 0.0
N 2.0562500000000004 4.112500000000001 0.0
Ti 0.0 6.168750000000001 2.0562500000000004
N 2.0562500000000004 6.168750000000001 2.0562500000000004
Al 2.0562500000000004 4.112500000000001 2.0562500000000004
N 0.0 4.112500000000001 2.0562500000000004
Al 2.0562500000000004 6.168750000000001 0.0
N 0.0 6.168750000000001 0.0
Al 0.0 4.112500000000001 4.112500000000001
N 2.0562500000000004 4.112500000000001 4.112500000000001
Al 0.0 6.168750000000001 6.168750000000001
N 2.0562500000000004 6.168750000000001 6.168750000000001
Al 2.0562500000000004 4.112500000000001 6.168750000000001
N 0.0 4.112500000000001 6.168750000000001
Al 2.0562500000000004 6.168750000000001 4.112500000000001
N 0.0 6.168750000000001 4.112500000000001
Al 4.112500000000001 0.0 0.0
N 6.168750000000001 0.0 0.0
Al 4.112500000000001 2.0562500000000004 2.0562500000000004
N 6.168750000000001 2.0562500000000004 2.0562500000000004
Al 6.168750000000001 0.0 2.0562500000000004
N 4.112500000000001 0.0 2.0562500000000004
Al 6.168750000000001 2.0562500000000004 0.0
N 4.112500000000001 2.0562500000000004 0.0
Al 4.112500000000001 0.0 4.112500000000001
N 6.168750000000001 0.0 4.112500000000001
Al 4.112500000000001 2.0562500000000004 6.168750000000001
N 6.168750000000001 2.0562500000000004 6.168750000000001
Al 6.168750000000001 0.0 6.168750000000001
N 4.112500000000001 0.0 6.168750000000001
Ti 6.168750000000001 2.0562500000000004 4.112500000000001
N 4.112500000000001 2.0562500000000004 4.112500000000001
Ti 4.112500000000001 4.112500000000001 0.0
N 6.168750000000001 4.112500000000001 0.0
Al 4.112500000000001 6.168750000000001 2.0562500000000004
N 6.168750000000001 6.168750000000001 2.0562500000000004
Ti 6.168750000000001 4.112500000000001 2.0562500000000004
N 4.112500000000001 4.112500000000001 2.0562500000000004
Al 6.168750000000001 6.168750000000001 0.0
N 4.112500000000001 6.168750000000001 0.0
Ti 4.112500000000001 4.112500000000001 4.112500000000001
N 6.168750000000001 4.112500000000001 4.112500000000001
Ti 4.112500000000001 6.168750000000001 6.168750000000001
N 6.168750000000001 6.168750000000001 6.168750000000001
Ti 6.168750000000001 4.112500000000001 6.168750000000001
N 4.112500000000001 4.112500000000001 6.168750000000001
Al 6.168750000000001 6.168750000000001 4.112500000000001
N 4.112500000000001 6.168750000000001 4.112500000000001

K_POINTS automatic
2 2 2 0 0 0
