ATOMIC_SPECIES
Al 26.982 Al.pbe-n-kjpaw_psl.1.0.0.UPF
N 14.007 N.pbe-n-kjpaw_psl.1.0.0.UPF
Ti 47.867 Ti.pbe-spn-kjpaw_psl.1.0.0.UPF

CELL_PARAMETERS angstrom
8.225000000000001 0.0 0.0
0.0 8.225000000000001 0.0
0.0 0.0 8.225000000000001

ATOMIC_POSITIONS (angstrom)
Ti           -0.0273869330        0.0700825504        0.9732472555
Al            2.1084306532       -0.0026500796       -1.0517111947
Al            0.0676914716        2.0398913138        3.1349585169
Al            2.1225390003        2.0092874314        1.0845381061
N             2.1566327999        0.0241644863        1.0158670943
N             0.0631169098       -0.0012296979        3.1263862108
N             2.0929652492        2.0013232089       -1.0067991254
N             0.1275669530        2.0639572670        1.1401871154
Al           -0.0710991956       -0.0186215470        5.1188992704
Al            2.1018299421        0.1024138188        2.9859202994
Ti           -0.0737361141        1.9923865773        7.2712703489
Al            2.0872748519        2.0549266070        5.1300986050
N             2.1538021606        0.1216505108        5.1045757539
N             0.1183977890       -0.0761490668        7.1096583888
N             2.0837408662        2.0656932686        3.0723603961
N             0.0799464182        2.0465207741        5.0996290567
Ti           -0.0814821497        4.0708674303        1.0650034080
Al            1.8044969598        3.8007442138       -0.7252767017
Al           -0.0447051275        6.1998543277        3.0956552570
Al            2.0691524788        6.1942698575        1.0216490084
N             2.1506709086        4.0888266331        1.0738837797
N             0.1182761085        4.1397394571        3.1454334338
N             2.0387739927        6.2005156062       -0.9235154960
N             0.0571518499        6.1732355855        1.0622744099
Al            0.0217165981        4.1996422417        5.1212798250
Al            2.0991476786        4.1215364006        3.0784556554
Al            0.0152978610        6.1842388881        7.0849091215
Al            1.9583800018        6.5754711370        4.7252885860
N             2.0980265793        4.0099281225        5.1058177802
N             0.0167197702        4.1810931609        7.1268661236
N             2.1180057896        6.2029829957        2.9521622707
N             0.1881892036        6.2055228394        5.0823351967
Al            4.1555551024       -0.0221676614        1.0555960953
Ti            6.2696834397        0.0990492448       -1.0437536235
Ti            4.2645706674        2.0435531835        3.0107205676
Ti            6.2458265830        2.0505322998        0.9845588377
N             6.1355049446       -0.0386147732        1.0800948198
N             4.1549513726       -0.0351068761        3.0726551821
N             6.2016671350        2.1908405581       -1.1184810772
N             4.0995323075        2.0684657986        1.0125067532
Al            4.2304846763       -0.0126475234        5.1198398252
Al            6.2260485394       -0.0686401915        3.1416558053
Ti            4.2448016076        2.0427112712        7.2138375334
Al            6.3080568608        2.0584298975        5.1031792042
N             6.1936992368        0.1276652034        5.0957580607
N             4.1181331962       -0.0213341211        7.1903661433
N             6.2888224848        2.0225198471        3.1011169249
N             4.1599903219        2.0599218947        5.1060397959
Al            2.9401820017        5.1781118118       -2.0657352763
Al            4.1442459142        4.1881590313        1.0056929319
Al            4.2218327496        6.1841741853        3.0792290459
Al            6.2787209391        6.1919804845        1.0336522649
N             6.1021264767        4.1702678452        0.9254255862
N             4.1256558452        4.1631264109        3.0398267753
N             6.3024749913        6.1690395700       -0.9166575977
N             4.1444951805        6.1936349418        1.0296863913
Al            4.4443951242        3.9692595584        4.9257405086
Ti            6.2865279294        4.1570725161        3.0165434879
Al            4.4880894250        6.3527293636        7.3632194050
Al            6.2457527811        4.2293944756        7.0898761922
N             6.2761393536        4.0100102793        5.1300605790
N             4.1377964741        4.2387242430        7.1556435299
N             6.2112189677        6.1960124594        2.9703079520
N             3.9334860449        6.2010084515        5.0904896199


