ATOMIC_SPECIES
Al 26.982 Al.pbe-n-kjpaw_psl.1.0.0.UPF
N 14.007 N.pbe-n-kjpaw_psl.1.0.0.UPF
Ti 47.867 Ti.pbe-spn-kjpaw_psl.1.0.0.UPF

CELL_PARAMETERS angstrom
8.395 0.0 0.0
0.0 8.395 0.0
0.0 0.0 8.395

ATOMIC_POSITIONS angstrom
Al 0.0 0.0 0.0
N 2.09875 0.0 0.0
Al 0.0 2.09875 2.09875
N 2.09875 2.09875 2.09875
Ti 2.09875 0.0 2.09875
N 0.0 0.0 2.09875
Ti 2.09875 2.09875 0.0
N 0.0 2.09875 0.0
Al 0.0 0.0 4.1975
N 2.09875 0.0 4.1975
Ti 0.0 2.09875 6.29625
N 2.09875 2.09875 6.29625
Al 2.09875 0.0 6.29625
N 0.0 0.0 6.29625
Al 2.09875 2.09875 4.1975
N 0.0 2.09875 4.1975
Ti 0.0 4.1975 0.0
N 2.09875 4.1975 0.0
Ti 0.0 6.29625 2.09875
N 2.09875 6.29625 2.09875
Ti 2.09875 4.1975 2.09875
N 0.0 4.1975 2.09875
Al 2.09875 6.29625 0.0
N 0.0 6.29625 0.0
Ti 0.0 4.1975 4.1975
N 2.09875 4.1975 4.1975
Ti 0.0 6.29625 6.29625
N 2.09875 6.29625 6.29625
Al 2.09875 4.1975 6.29625
N 0.0 4.1975 6.29625
Ti 2.09875 6.29625 4.1975
N 0.0 6.29625 4.1975
Ti 4.1975 0.0 0.0
N 6.29625 0.0 0.0
Al 4.1975 2.09875 2.09875
N 6.29625 2.09875 2.09875
Ti 6.29625 0.0 2.09875
N 4.1975 0.0 2.09875
Ti 6.29625 2.09875 0.0
N 4.1975 2.09875 0.0
Ti 4.1975 0.0 4.1975
N 6.29625 0.0 4.1975
Ti 4.1975 2.09875 6.29625
N 6.29625 2.09875 6.29625
Ti 6.29625 0.0 6.29625
N 4.1975 0.0 6.29625
Ti 6.29625 2.09875 4.1975
N 4.1975 2.09875 4.1975
Ti 4.1975 4.1975 0.0
N 6.29625 4.1975 0.0
Ti 4.1975 6.29625 2.09875
N 6.29625 6.29625 2.09875
Ti 6.29625 4.1975 2.09875
N 4.1975 4.1975 2.09875
Ti 6.29625 6.29625 0.0
N 4.1975 6.29625 0.0
Ti 4.1975 4.1975 4.1975
N 6.29625 4.1975 4.1975
Ti 4.1975 6.29625 6.29625
N 6.29625 6.29625 6.29625
Ti 6.29625 4.1975 6.29625
N 4.1975 4.1975 6.29625
Ti 6.29625 6.29625 4.1975
N 4.1975 6.29625 4.1975

K_POINTS automatic
2 2 2 0 0 0
