ATOMIC_SPECIES
Al 26.982 Al.pbe-n-kjpaw_psl.1.0.0.UPF
N 14.007 N.pbe-n-kjpaw_psl.1.0.0.UPF
Ti 47.867 Ti.pbe-spn-kjpaw_psl.1.0.0.UPF

CELL_PARAMETERS angstrom
8.182500000000001 0.0 0.0
0.0 8.182500000000001 0.0
0.0 0.0 8.182500000000001

ATOMIC_POSITIONS angstrom
Al 0.0 0.0 0.0
N 2.0456250000000002 0.0 0.0
Al 0.0 2.0456250000000002 2.0456250000000002
N 2.0456250000000002 2.0456250000000002 2.0456250000000002
Al 2.0456250000000002 0.0 2.0456250000000002
N 0.0 0.0 2.0456250000000002
Ti 2.0456250000000002 2.0456250000000002 0.0
N 0.0 2.0456250000000002 0.0
Ti 0.0 0.0 4.0912500000000005
N 2.0456250000000002 0.0 4.0912500000000005
Al 0.0 2.0456250000000002 6.136875000000001
N 2.0456250000000002 2.0456250000000002 6.136875000000001
Ti 2.0456250000000002 0.0 6.136875000000001
N 0.0 0.0 6.136875000000001
Al 2.0456250000000002 2.0456250000000002 4.0912500000000005
N 0.0 2.0456250000000002 4.0912500000000005
Al 0.0 4.0912500000000005 0.0
N 2.0456250000000002 4.0912500000000005 0.0
Al 0.0 6.136875000000001 2.0456250000000002
N 2.0456250000000002 6.136875000000001 2.0456250000000002
Ti 2.0456250000000002 4.0912500000000005 2.0456250000000002
N 0.0 4.0912500000000005 2.0456250000000002
Al 2.0456250000000002 6.136875000000001 0.0
N 0.0 6.136875000000001 0.0
Al 0.0 4.0912500000000005 4.0912500000000005
N 2.0456250000000002 4.0912500000000005 4.0912500000000005
Al 0.0 6.136875000000001 6.136875000000001
N 2.0456250000000002 6.136875000000001 6.136875000000001
Al 2.0456250000000002 4.0912500000000005 6.136875000000001
N 0.0 4.0912500000000005 6.136875000000001
Al 2.0456250000000002 6.136875000000001 4.0912500000000005
N 0.0 6.136875000000001 4.0912500000000005
Al 4.0912500000000005 0.0 0.0
N 6.136875000000001 0.0 0.0
Al 4.0912500000000005 2.0456250000000002 2.0456250000000002
N 6.136875000000001 2.0456250000000002 2.0456250000000002
Al 6.136875000000001 0.0 2.0456250000000002
N 4.0912500000000005 0.0 2.0456250000000002
Al 6.136875000000001 2.0456250000000002 0.0
N 4.0912500000000005 2.0456250000000002 0.0
Al 4.0912500000000005 0.0 4.0912500000000005
N 6.136875000000001 0.0 4.0912500000000005
Al 4.0912500000000005 2.0456250000000002 6.136875000000001
N 6.136875000000001 2.0456250000000002 6.136875000000001
Al 6.136875000000001 0.0 6.136875000000001
N 4.0912500000000005 0.0 6.136875000000001
Al 6.136875000000001 2.0456250000000002 4.0912500000000005
N 4.0912500000000005 2.0456250000000002 4.0912500000000005
Al 4.0912500000000005 4.0912500000000005 0.0
N 6.136875000000001 4.0912500000000005 0.0
Al 4.0912500000000005 6.136875000000001 2.0456250000000002
N 6.136875000000001 6.136875000000001 2.0456250000000002
Al 6.136875000000001 4.0912500000000005 2.0456250000000002
N 4.0912500000000005 4.0912500000000005 2.0456250000000002
Al 6.136875000000001 6.136875000000001 0.0
N 4.0912500000000005 6.136875000000001 0.0
Al 4.0912500000000005 4.0912500000000005 4.0912500000000005
N 6.136875000000001 4.0912500000000005 4.0912500000000005
Al 4.0912500000000005 6.136875000000001 6.136875000000001
N 6.136875000000001 6.136875000000001 6.136875000000001
Al 6.136875000000001 4.0912500000000005 6.136875000000001
N 4.0912500000000005 4.0912500000000005 6.136875000000001
Al 6.136875000000001 6.136875000000001 4.0912500000000005
N 4.0912500000000005 6.136875000000001 4.0912500000000005

K_POINTS automatic
2 2 2 0 0 0
