&control
   calculation = 'relax',              ! Relaxerar atompositionerna men håller cellen fast
   prefix = 'TiAlN_x0125_relax',    ! Unikt prefix för detta x-värde
   outdir = '../output/relax_sqs_all_x/tmp_x0125/',  ! Temporära QE-filer
   pseudo_dir = '../../pseudo/',       ! Pseudopotentialer relativt denna mapp
   restart_mode = 'from_scratch',      ! Startar från början
   disk_io = 'none',                   ! Minskar mängden sparade filer
   nstep = 8,                         ! Max antal relaxationssteg
   etot_conv_thr = 1E-4,               ! Energikonvergens för relaxation
   forc_conv_thr = 1E-3,               ! Kraftkonvergens för relaxation
   tstress = .true.,                   ! Skriver ut stress/tryck
   tprnfor = .true.,                   ! Skriver ut krafter
/

&system
   ibrav = 0,                          ! Cellvektorer anges explicit nedan
   nat = 64,                           ! 64 atomer: 32 metallplatser + 32 N
   ntyp = 3,                           ! Ti, Al och N
   ecutwfc = 60,                       ! Våglfunktions-cutoff
   ecutrho = 240,                      ! Laddningstäthets-cutoff
   occupations = 'smearing',           ! Smearing används för robust konvergens
   smearing = 'gaussian',
   degauss = 0.005,
/

&electrons
   diagonalization = 'david',          ! Diagonaliseringsmetod
   conv_thr = 1E-6,                    ! Elektronisk konvergens
   mixing_mode = 'local-TF',
   mixing_beta = 0.2,
/

&ions
   ion_dynamics = 'bfgs',              ! BFGS-relaxering av atompositioner
/

ATOMIC_SPECIES
Al 26.982 Al.pbe-n-kjpaw_psl.1.0.0.UPF
N  14.007 N.pbe-n-kjpaw_psl.1.0.0.UPF
Ti 47.867 Ti.pbe-spn-kjpaw_psl.1.0.0.UPF

CELL_PARAMETERS angstrom
8.4375 0.0 0.0
0.0 8.4375 0.0
0.0 0.0 8.4375

ATOMIC_POSITIONS angstrom
Ti 0.0 0.0 0.0
N 2.109375 0.0 0.0
Ti 0.0 2.109375 2.109375
N 2.109375 2.109375 2.109375
Ti 2.109375 0.0 2.109375
N 0.0 0.0 2.109375
Ti 2.109375 2.109375 0.0
N 0.0 2.109375 0.0
Ti 0.0 0.0 4.21875
N 2.109375 0.0 4.21875
Al 0.0 2.109375 6.328125
N 2.109375 2.109375 6.328125
Ti 2.109375 0.0 6.328125
N 0.0 0.0 6.328125
Al 2.109375 2.109375 4.21875
N 0.0 2.109375 4.21875
Ti 0.0 4.21875 0.0
N 2.109375 4.21875 0.0
Ti 0.0 6.328125 2.109375
N 2.109375 6.328125 2.109375
Ti 2.109375 4.21875 2.109375
N 0.0 4.21875 2.109375
Ti 2.109375 6.328125 0.0
N 0.0 6.328125 0.0
Ti 0.0 4.21875 4.21875
N 2.109375 4.21875 4.21875
Ti 0.0 6.328125 6.328125
N 2.109375 6.328125 6.328125
Ti 2.109375 4.21875 6.328125
N 0.0 4.21875 6.328125
Ti 2.109375 6.328125 4.21875
N 0.0 6.328125 4.21875
Al 4.21875 0.0 0.0
N 6.328125 0.0 0.0
Al 4.21875 2.109375 2.109375
N 6.328125 2.109375 2.109375
Ti 6.328125 0.0 2.109375
N 4.21875 0.0 2.109375
Ti 6.328125 2.109375 0.0
N 4.21875 2.109375 0.0
Ti 4.21875 0.0 4.21875
N 6.328125 0.0 4.21875
Ti 4.21875 2.109375 6.328125
N 6.328125 2.109375 6.328125
Ti 6.328125 0.0 6.328125
N 4.21875 0.0 6.328125
Ti 6.328125 2.109375 4.21875
N 4.21875 2.109375 4.21875
Ti 4.21875 4.21875 0.0
N 6.328125 4.21875 0.0
Ti 4.21875 6.328125 2.109375
N 6.328125 6.328125 2.109375
Ti 6.328125 4.21875 2.109375
N 4.21875 4.21875 2.109375
Ti 6.328125 6.328125 0.0
N 4.21875 6.328125 0.0
Ti 4.21875 4.21875 4.21875
N 6.328125 4.21875 4.21875
Ti 4.21875 6.328125 6.328125
N 6.328125 6.328125 6.328125
Ti 6.328125 4.21875 6.328125
N 4.21875 4.21875 6.328125
Ti 6.328125 6.328125 4.21875
N 4.21875 6.328125 4.21875


K_POINTS automatic
2 2 2 0 0 0
