&control
   calculation = 'relax',              ! Relaxerar atompositionerna men håller cellen fast
   prefix = 'TiAlN_x0625_relax',    ! Unikt prefix för detta x-värde
   outdir = '../output/relax_sqs_all_x/tmp_x0625/',  ! Temporära QE-filer
   pseudo_dir = '../../pseudo/',       ! Pseudopotentialer relativt denna mapp
   restart_mode = 'from_scratch',      ! Startar från början
   disk_io = 'none',                   ! Minskar mängden sparade filer
   nstep = 8,                         ! Max antal relaxationssteg
   etot_conv_thr = 1E-4,               ! Energikonvergens för relaxation
   forc_conv_thr = 1E-3,               ! Kraftkonvergens för relaxation
   tstress = .true.,                   ! Skriver ut stress/tryck
   tprnfor = .true.,                   ! Skriver ut krafter
/

&system
   ibrav = 0,                          ! Cellvektorer anges explicit nedan
   nat = 64,                           ! 64 atomer: 32 metallplatser + 32 N
   ntyp = 3,                           ! Ti, Al och N
   ecutwfc = 60,                       ! Våglfunktions-cutoff
   ecutrho = 240,                      ! Laddningstäthets-cutoff
   occupations = 'smearing',           ! Smearing används för robust konvergens
   smearing = 'gaussian',
   degauss = 0.005,
/

&electrons
   diagonalization = 'david',          ! Diagonaliseringsmetod
   conv_thr = 1E-6,                    ! Elektronisk konvergens
   mixing_mode = 'local-TF',
   mixing_beta = 0.2,
/

&ions
   ion_dynamics = 'bfgs',              ! BFGS-relaxering av atompositioner
/

ATOMIC_SPECIES
Al 26.982 Al.pbe-n-kjpaw_psl.1.0.0.UPF
N  14.007 N.pbe-n-kjpaw_psl.1.0.0.UPF
Ti 47.867 Ti.pbe-spn-kjpaw_psl.1.0.0.UPF

CELL_PARAMETERS angstrom
8.2675 0.0 0.0
0.0 8.2675 0.0
0.0 0.0 8.2675

ATOMIC_POSITIONS angstrom
Al 0.0 0.0 0.0
N 2.066875 0.0 0.0
Ti 0.0 2.066875 2.066875
N 2.066875 2.066875 2.066875
Ti 2.066875 0.0 2.066875
N 0.0 0.0 2.066875
Al 2.066875 2.066875 0.0
N 0.0 2.066875 0.0
Al 0.0 0.0 4.13375
N 2.066875 0.0 4.13375
Ti 0.0 2.066875 6.2006250000000005
N 2.066875 2.066875 6.2006250000000005
Al 2.066875 0.0 6.2006250000000005
N 0.0 0.0 6.2006250000000005
Al 2.066875 2.066875 4.13375
N 0.0 2.066875 4.13375
Al 0.0 4.13375 0.0
N 2.066875 4.13375 0.0
Ti 0.0 6.2006250000000005 2.066875
N 2.066875 6.2006250000000005 2.066875
Al 2.066875 4.13375 2.066875
N 0.0 4.13375 2.066875
Al 2.066875 6.2006250000000005 0.0
N 0.0 6.2006250000000005 0.0
Ti 0.0 4.13375 4.13375
N 2.066875 4.13375 4.13375
Al 0.0 6.2006250000000005 6.2006250000000005
N 2.066875 6.2006250000000005 6.2006250000000005
Al 2.066875 4.13375 6.2006250000000005
N 0.0 4.13375 6.2006250000000005
Ti 2.066875 6.2006250000000005 4.13375
N 0.0 6.2006250000000005 4.13375
Al 4.13375 0.0 0.0
N 6.2006250000000005 0.0 0.0
Ti 4.13375 2.066875 2.066875
N 6.2006250000000005 2.066875 2.066875
Ti 6.2006250000000005 0.0 2.066875
N 4.13375 0.0 2.066875
Al 6.2006250000000005 2.066875 0.0
N 4.13375 2.066875 0.0
Ti 4.13375 0.0 4.13375
N 6.2006250000000005 0.0 4.13375
Al 4.13375 2.066875 6.2006250000000005
N 6.2006250000000005 2.066875 6.2006250000000005
Al 6.2006250000000005 0.0 6.2006250000000005
N 4.13375 0.0 6.2006250000000005
Ti 6.2006250000000005 2.066875 4.13375
N 4.13375 2.066875 4.13375
Al 4.13375 4.13375 0.0
N 6.2006250000000005 4.13375 0.0
Al 4.13375 6.2006250000000005 2.066875
N 6.2006250000000005 6.2006250000000005 2.066875
Al 6.2006250000000005 4.13375 2.066875
N 4.13375 4.13375 2.066875
Ti 6.2006250000000005 6.2006250000000005 0.0
N 4.13375 6.2006250000000005 0.0
Ti 4.13375 4.13375 4.13375
N 6.2006250000000005 4.13375 4.13375
Al 4.13375 6.2006250000000005 6.2006250000000005
N 6.2006250000000005 6.2006250000000005 6.2006250000000005
Al 6.2006250000000005 4.13375 6.2006250000000005
N 4.13375 4.13375 6.2006250000000005
Al 6.2006250000000005 6.2006250000000005 4.13375
N 4.13375 6.2006250000000005 4.13375


K_POINTS automatic
2 2 2 0 0 0
