&BANDS
   prefix = 'TiN_scf_ecut60_k444',
   outdir = '../output/scf_tmp_ecut60/',
   filband = '../output/bands/TiN_bands.dat',
/
