&bands
   prefix = 'AlN'
   outdir = '../output/'
   filband = 'AlN.bands.dat'
/
