&control
   calculation = 'scf',             ! Performs a self-consistent field calculation - the electronic ground state and total energy for the given structure
   prefix = 'TiAlN_x0375_scf',   ! Prefix for output files - used as the base name for files Quantum ESPRESSO writes
   outdir = '../output/scf_sqs_all_x/tmp_x0375/',  ! Directory where output data is stored - this is where QE saves temporary calculation data
   pseudo_dir = '../../pseudo/',    ! Path to the folder containing pseudo-potentials - QE looks here for the .UPF files
   restart_mode = 'from_scratch',   ! Determines whether to start from scratch or use saved data - here it forces a completely new run
   tstress = .true.,                ! Print output stress - prints the calculated stress/pressure tensor in the output file
   tprnfor = .true.,                ! Print output forces - prints the forces acting on each atom in the output file
/

&system
   ibrav = 0,                       ! Chosen to match the Materials Project crystal structure
   nat = 64,                        ! Number of atoms in the unit cell
   ntyp = 3,                        ! Number of atomic species - Ti, Al and N
   ecutwfc = 60,                    ! Plane-wave cutoff for wavefunctions
   ecutrho = 240,                   ! Plane-wave cutoff for charge density
   occupations = 'smearing',        ! Specifies smearing for metallic systems - kept from lab setup
   smearing = 'gaussian',           ! Type of smearing - kept from lab setup
   degauss = 0.005,                 ! Width of the smearing - kept from lab setup
/

&electrons
   diagonalization = 'david',       ! Method for matrix diagonalization - algorithm used to solve the electronic problem
   conv_thr = 1E-8,                 ! The convergence threshold for the electronic density
   mixing_mode = 'local-TF',        ! Mixing mode for the charge density - how new and old densities are combined
   mixing_beta = 0.2,               ! Mixing parameter for the charge density - controls how much of the new density is used
/

ATOMIC_SPECIES
Al 26.982 Al.pbe-n-kjpaw_psl.1.0.0.UPF
N  14.007 N.pbe-n-kjpaw_psl.1.0.0.UPF
Ti 47.867 Ti.pbe-spn-kjpaw_psl.1.0.0.UPF

CELL_PARAMETERS angstrom
8.352500000000001 0.0 0.0
0.0 8.352500000000001 0.0
0.0 0.0 8.352500000000001

ATOMIC_POSITIONS (angstrom)
Al           -0.0121624379       -0.0175649659       -0.0355761151
N             1.9931803926       -0.0185479177       -0.0744627165
Ti            0.0193379476        2.0416941800        2.1337788642
N             2.0831081646        2.0853258362        2.0930432777
Ti            2.0775617942        0.0165629221        2.0938714159
N            -0.0926952935       -0.0117150706        1.9831170998
Ti            2.1180995407        2.1162298074        0.0153044102
N            -0.0146039495        2.1081488984       -0.0117236452
Ti           -0.0064786799        0.0357401730        4.1180438585
N             2.0759974596       -0.0632206296        4.2548852963
Ti            0.0326246158        2.0896127117        6.2197539896
N             2.0767813356        1.9806307608        6.2593318925
Al            2.0409910944       -0.0329068214        6.2610382343
N            -0.0384495533       -0.0537216036        6.3104626381
Ti            2.0930394587        2.0946182204        4.1659566265
N             0.0099725945        2.1974509628        4.1836073938
Al           -0.0421693928        4.1910984849       -0.0009631199
N             1.9655002931        4.1847664497       -0.0039429759
Ti            0.0673331204        6.3166004108        2.1172570400
N             2.1675339478        6.2704768191        2.1519076896
Ti            2.1021317134        4.1541547602        2.0579125963
N            -0.0769352006        4.1960605523        2.0747903807
Ti            2.1313943763        6.2300582786        0.0097089925
N            -0.0424853257        6.2481564555       -0.0340391396
Al           -0.0104172540        4.2149027711        4.1837778476
N             2.0118619880        4.2374179548        4.1859374229
Al            0.0031179416        6.2595316779        6.2771109977
N             2.0287858014        6.3237192054        6.2196573609
Ti            2.1549102955        4.1626035163        6.2939606684
N            -0.0611652986        4.2287123129        6.2756232018
Al            2.0862324772        6.2594804360        4.1930800671
N             0.0455154399        6.2134001456        4.2233486159
Ti            4.1157918418        0.0343360486        0.0051435452
N             6.3191634032       -0.0480070028       -0.0112933666
Ti            4.1493447446        2.0943383914        2.1065886194
N             6.2556981048        2.0785246311        2.0748671747
Al            6.2572272260       -0.0333130144        2.0222314102
N             4.2665898100       -0.0630086932        2.0780256058
Ti            6.2235591342        2.0933242284        0.0013660056
N             4.1829561982        2.0842137998        0.0104936616
Ti            4.1794519972        0.0521298793        4.1733402367
N             6.2751022507       -0.0151386816        4.1891201673
Ti            4.1428598012        2.1241012760        6.2442081723
N             6.2721130379        2.0587626398        6.2733686056
Al            6.2827496507       -0.0323855266        6.3126294954
N             4.2157403799       -0.0266815503        6.2778389216
Ti            6.2620490875        2.0448584867        4.1725350649
N             4.1716930767        2.0932007605        4.1683139383
Ti            4.1172458631        4.1440316617       -0.0247764778
N             6.3204029631        4.2212641322       -0.0046108554
Al            4.1991677047        6.2538089720        2.0965770126
N             6.2319515818        6.2768815836        2.0598063454
Al            6.2851448766        4.2111893939        2.0811722517
N             4.2751843278        4.2390016160        2.0873189424
Al            6.2820692640        6.2567019017        0.0031940156
N             4.2505784214        6.2656371514        0.0596377139
Ti            4.1631419671        4.1182738234        4.2024977365
N             6.3313219849        4.1998501640        4.1794165844
Ti            4.1265911199        6.2159846581        6.2744698700
N             6.3108897138        6.2812783246        6.3005652147
Al            6.3168208276        4.2118375330        6.2693135097
N             4.3209935352        4.1959799420        6.2633338911
Ti            6.2463098899        6.3176570819        4.1851667767
N             4.1226468075        6.2518886925        4.1325800437

K_POINTS automatic
2 2 2 0 0 0
