&control
   calculation = 'scf',             ! Performs a self-consistent field calculation - the electronic ground state and total energy for the given structure
   prefix = 'TiAlN_x025_scf',   ! Prefix for output files - used as the base name for files Quantum ESPRESSO writes
   outdir = '../output/scf_sqs_all_x/tmp_x025/',  ! Directory where output data is stored - this is where QE saves temporary calculation data
   pseudo_dir = '../../pseudo/',    ! Path to the folder containing pseudo-potentials - QE looks here for the .UPF files
   restart_mode = 'from_scratch',   ! Determines whether to start from scratch or use saved data - here it forces a completely new run
   tstress = .true.,                ! Print output stress - prints the calculated stress/pressure tensor in the output file
   tprnfor = .true.,                ! Print output forces - prints the forces acting on each atom in the output file
/

&system
   ibrav = 0,                       ! Chosen to match the Materials Project crystal structure
   nat = 64,                        ! Number of atoms in the unit cell
   ntyp = 3,                        ! Number of atomic species - Ti, Al and N
   ecutwfc = 60,                    ! Plane-wave cutoff for wavefunctions
   ecutrho = 240,                   ! Plane-wave cutoff for charge density
   occupations = 'smearing',        ! Specifies smearing for metallic systems - kept from lab setup
   smearing = 'gaussian',           ! Type of smearing - kept from lab setup
   degauss = 0.005,                 ! Width of the smearing - kept from lab setup
/

&electrons
   diagonalization = 'david',       ! Method for matrix diagonalization - algorithm used to solve the electronic problem
   conv_thr = 1E-8,                 ! The convergence threshold for the electronic density
   mixing_mode = 'local-TF',        ! Mixing mode for the charge density - how new and old densities are combined
   mixing_beta = 0.2,               ! Mixing parameter for the charge density - controls how much of the new density is used
/

ATOMIC_SPECIES
Al 26.982 Al.pbe-n-kjpaw_psl.1.0.0.UPF
N  14.007 N.pbe-n-kjpaw_psl.1.0.0.UPF
Ti 47.867 Ti.pbe-spn-kjpaw_psl.1.0.0.UPF

CELL_PARAMETERS angstrom
8.395 0.0 0.0
0.0 8.395 0.0
0.0 0.0 8.395

ATOMIC_POSITIONS (angstrom)
Al            0.0311627763       -0.0006839162        0.0107175498
N             2.0408625758       -0.0407212822       -0.0713464375
Al            0.0041102433        2.0501687336        2.1137016581
N             2.1108758864        2.0963668735        2.1427024905
Ti            2.1405769816       -0.0630164807        2.1050434558
N             0.0130696334        0.0594260140        2.1035343484
Ti            2.1291956014        2.1223027878        0.0055922097
N             0.0226878687        2.0295914992        0.0791905314
Al            0.0249639999        0.0329161618        4.1924289654
N             2.0406872785        0.0426791588        4.2647069516
Ti           -0.0679790213        2.1254548681        6.3075298967
N             2.0969166578        2.1112381402        6.2640883576
Al            2.0592671962       -0.0050867243        6.2900544620
N             0.0595242804        0.0139849688        6.2972499965
Al            2.0908146867        2.0890173664        4.2071830398
N             0.0516591401        2.0420462570        4.1381039546
Ti           -0.0229967207        4.2010905350        0.0228370974
N             2.0875923340        4.2537570668       -0.0784687201
Ti            0.0051980012        6.2695759658        2.1202973191
N             2.1032436363        6.2972112621        2.0047656115
Ti            2.0737295614        4.2585590911        2.1096850176
N             0.0033837808        4.0910490671        2.0976348631
Al            2.0799749724        6.3068484894       -0.0701793485
N             0.0565889338        6.3669344284        0.0049673245
Ti           -0.0080604755        4.2215383172        4.1756877182
N             2.0920193403        4.1370479250        4.2765277939
Ti           -0.0664939142        6.2684466567        6.2719912820
N             2.0972833664        6.2831797254        6.3293817798
Al            2.1063286126        4.2005965426        6.2917277488
N             0.0678409617        4.1910194844        6.2982295075
Ti            2.1054908703        6.2744213470        4.1647667003
N             0.0136574443        6.3891318739        4.1895524355
Ti            4.2185489530       -0.0062131621        0.0071862784
N             6.3915642697       -0.0063139380       -0.0039958427
Al            4.1878134551        2.1106852480        2.1320376383
N             6.2799055708        2.0986970889        2.1087107862
Ti            6.2587508959       -0.0473004564        2.0894114229
N             4.1944832763        0.0840742927        2.1023351482
Ti            6.2671969373        2.1080494149       -0.0350746347
N             4.1758459301        2.0922054642        0.0875427164
Ti            4.2116749307       -0.0325924714        4.1912079413
N             6.3841036454        0.0068660445        4.2030057766
Ti            4.2627791334        2.0713996777        6.3002145781
N             6.2968644852        2.1077406546        6.2891020508
Ti            6.2807253171        0.0017014990        6.3057158487
N             4.1016631478        0.0089945603        6.2959129001
Ti            6.2797638890        2.1152590527        4.2369796357
N             4.1334080251        2.0879895090        4.1343816284
Ti            4.2214780734        4.2018748152        0.0095618945
N             6.3074504975        4.2056657852       -0.0089167352
Ti            4.1897212896        6.3030978207        2.1087510199
N             6.2909548199        6.2963997373        2.0919163653
Ti            6.3237218463        4.2431431058        2.0909039086
N             4.1949821840        4.1171808021        2.1014588143
Ti            6.2884134218        6.2888797880       -0.0113231375
N             4.1269466889        6.3021101397        0.0091102507
Ti            4.2078621973        4.2309825075        4.1921605160
N             6.3043592383        4.1917421426        4.2090355714
Ti            4.2581392317        6.3216487185        6.2844722337
N             6.2933796969        6.2914504953        6.3000604317
Ti            6.2981452695        4.1992458122        6.3009408893
N             4.1280992480        4.1863877228        6.2984998990
Ti            6.2912094043        6.2801111284        4.2114563885
N             4.1868685403        6.3027447962        4.1873522562

K_POINTS automatic
2 2 2 0 0 0
