&control
   calculation = 'vc-relax',           ! Performs a self-consistent field calculation - the electronic ground state and total energy for the given structure
   prefix = 'TiAlN',                ! Prefix for output files - used as the base name for files Quantum ESPRESSO writes
   outdir = '../output/',         ! Directory where output data is stored - this is where QE saves temporary calculation data
   pseudo_dir = '../../pseudo/',  ! Path to the folder containing pseudo-potentials - QE looks here for the .UPF files
   restart_mode = 'from_scratch', ! Determines whether to start from scratch or use saved data - here it forces a completely new run
   etot_conv_thr = 1E-5,          ! Energy convergence threshold - mainly relevant for relaxation, tells QE when the total energy is converged enough
   forc_conv_thr = 1E-4,          ! Force convergence threshold - tells QE when atomic forces are small enough
   tstress = .true.,              ! Print output stress - prints the calculated stress/pressure tensor in the output file
   tprnfor = .true.,              ! Print output forces - prints the forces acting on each atom in the output file
/

&system
   ibrav = 0,                     ! Chosen to match the Materials Project crystal structure
   nat = 128,                       ! Number of atoms in the unit cell - taken from our primitive AlN cell
   ntyp = 3,                      ! Number of atomic species - Al and N
   ecutwfc = 80,                 ! Plane-wave cutoff for wavefunctions
   ecutrho = 320,                 ! Plane-wave cutoff for charge density
   occupations = 'smearing',      ! Specifies smearing for metallic systems - kept from lab setup, although now its isolator therefore fixed
   smearing = 'gaussian',         ! Type of smearing - kept from lab setup
   degauss = 0.005,               ! Width of the smearing - kept from lab setup
/

! Structure source:
! - Materials Project: AlN is cubic, space group Fm-3m
! - Quantum ESPRESSO INPUT_PW: for ibrav = 2 (cubic F / fcc),
!   v1 = (a/2)(-1,0,1), v2 = (a/2)(0,1,1), v3 = (a/2)(-1,1,0)
! - Here we use the equivalent primitive cell explicitly with ibrav = 0
!
! Materials Project lattice parameter:
! a = 4.07 A for Al and Ti = 4.24
! Därför är initial guess av a = x*4.07+4.24*(1-x)
! 1 A = 1.889726 bohr
! a = 4.07 * 1.889726 = 7.69118482 bohr
! a/2 = 3.84559241 bohr
!
! The cell values below come from the relaxed TiN structure used in the project:
! a/2 = 3.84559241 bohr
! Therefore the primitive cell vectors are:
! v1 = (-3.84559241, 0.000000000, 3.84559241)
! v2 = ( 0.000000000, 3.84559241, 3.84559241)
! v3 = (-3.84559241, 3.84559241, 0.000000000)
!
! Atomic positions in the primitive rocksalt cell:
! Al (0,0,0)
! N  (1/2,1/2,1/2)

&electrons
   diagonalization = 'david',   ! Method for matrix diagonalization - algorithm used to solve the electronic problem
   conv_thr = 1E-6,             ! The convergence threshold for the electronic density. egentligen 1E-8 på resterande
   mixing_mode = 'local-TF',    ! Mixing mode for the charge density - how new and old densities are combined
   mixing_beta = 0.2,           ! Mixing parameter for the charge density - controls how much of the new density is used
/
&ions
   ion_dynamics = 'bfgs',         ! Method used to relax the atomic positions
/

&cell
   cell_dynamics = 'bfgs',        ! Method used to relax the cell
   press = 0.0,                   ! Target pressure
/


ATOMIC_SPECIES
Al 26.982 Al.pbe-n-kjpaw_psl.1.0.0.UPF
N  14.007 N.pbe-n-kjpaw_psl.1.0.0.UPF
Ti 47.867 Ti.pbe-spn-kjpaw_psl.1.0.0.UPF

CELL_PARAMETERS angstrom
11.992531008923846 0.0 0.0
5.996265504461924 10.385836509400674 0.0
5.996265504461924 3.461945503133559 9.791860565456052

ATOMIC_POSITIONS angstrom
Ti 0.0 0.0 0.0
N 11.992531008923844 1.730972751566779 1.2239825706820064
Ti 1.499066376115481 0.8654863757833897 2.447965141364013
N 13.491597385039327 2.596459127350169 3.6719477120460193
Al 2.998132752230962 1.7309727515667794 4.895930282728026
N 14.990663761154806 3.461945503133558 6.119912853410031
Ti 4.497199128346443 2.596459127350169 7.343895424092039
N 16.489730137270293 4.327431878916949 8.567877994774044
Ti 1.499066376115481 2.5964591273501685 0.0
N 13.491597385039327 4.327431878916947 1.2239825706820064
Ti 2.998132752230962 3.461945503133558 2.447965141364013
N 14.99066376115481 5.192918254700337 3.6719477120460193
Al 4.497199128346443 4.327431878916948 4.895930282728026
N 16.48973013727029 6.058404630483726 6.119912853410031
Ti 5.996265504461926 5.192918254700339 7.343895424092038
N 17.988796513385775 6.923891006267119 8.567877994774044
Ti 2.998132752230962 5.192918254700337 0.0
N 14.990663761154806 6.923891006267116 1.2239825706820064
Ti 4.497199128346443 6.058404630483727 2.447965141364013
N 16.48973013727029 7.789377382050504 3.6719477120460198
Ti 5.996265504461924 6.923891006267116 4.895930282728026
N 17.98879651338577 8.654863757833896 6.119912853410031
Al 19.48786288950125 7.789377382050507 7.343895424092039
N 19.48786288950125 9.520350133617287 8.567877994774046
Al 4.497199128346443 7.789377382050505 0.0
N 16.48973013727029 9.520350133617283 1.2239825706820064
Ti 5.996265504461923 8.654863757833894 2.4479651413640133
N 17.98879651338577 10.385836509400672 3.6719477120460198
Ti 7.495331880577406 9.520350133617287 4.895930282728026
N 19.48786288950125 11.251322885184065 6.119912853410031
Al 20.98692926561673 10.385836509400674 7.3438954240920395
N 20.98692926561674 12.116809260967454 8.567877994774044
Ti 2.9981327522309615 0.0 0.0
N 2.998132752230962 1.730972751566779 1.2239825706820064
Ti 4.497199128346443 0.8654863757833897 2.447965141364013
N 4.497199128346443 2.596459127350169 3.6719477120460193
Al 5.996265504461924 1.7309727515667794 4.895930282728026
N 5.996265504461922 3.461945503133558 6.119912853410031
Ti 7.495331880577406 2.59645912735017 7.343895424092038
N 7.495331880577407 4.327431878916949 8.567877994774044
Ti 4.497199128346443 2.5964591273501685 0.0
N 4.497199128346443 4.327431878916947 1.2239825706820064
Ti 5.996265504461924 3.461945503133558 2.447965141364013
N 5.996265504461923 5.192918254700337 3.6719477120460198
Al 7.495331880577405 4.327431878916948 4.895930282728026
N 7.495331880577406 6.058404630483728 6.119912853410031
Ti 8.994398256692886 5.192918254700338 7.343895424092039
N 8.994398256692886 6.923891006267118 8.567877994774046
Al 5.996265504461924 5.192918254700337 0.0
N 5.996265504461924 6.923891006267116 1.2239825706820064
Ti 7.495331880577404 6.058404630483727 2.4479651413640133
N 7.495331880577405 7.789377382050506 3.6719477120460193
Al 8.994398256692886 6.923891006267116 4.895930282728026
N 8.994398256692886 8.654863757833896 6.119912853410031
Ti 10.493464632808365 7.789377382050508 7.3438954240920395
N 10.493464632808365 9.520350133617287 8.567877994774046
Al 7.495331880577405 7.789377382050505 0.0
N 7.495331880577403 9.520350133617283 1.2239825706820069
Ti 8.994398256692886 8.654863757833894 2.447965141364013
N 8.994398256692886 10.385836509400674 3.6719477120460198
Ti 10.493464632808367 9.520350133617287 4.895930282728026
N 10.493464632808367 11.251322885184065 6.119912853410031
Al 11.992531008923846 10.385836509400674 7.3438954240920395
N 11.992531008923848 12.116809260967454 8.567877994774044
Al 5.996265504461923 0.0 0.0
N 5.996265504461923 1.730972751566779 1.2239825706820064
Al 7.495331880577404 0.8654863757833897 2.447965141364013
N 7.495331880577404 2.5964591273501685 3.6719477120460198
Al 8.994398256692886 1.7309727515667794 4.895930282728026
N 8.994398256692888 3.4619455031335593 6.119912853410031
Al 10.493464632808367 2.596459127350169 7.343895424092039
N 10.493464632808369 4.327431878916949 8.567877994774046
Ti 7.495331880577404 2.5964591273501685 0.0
N 7.495331880577405 4.327431878916947 1.2239825706820064
Ti 8.994398256692886 3.461945503133558 2.4479651413640133
N 8.994398256692886 5.192918254700337 3.6719477120460193
Ti 10.493464632808365 4.327431878916948 4.895930282728026
N 10.493464632808367 6.058404630483726 6.119912853410031
Al 11.992531008923846 5.192918254700337 7.3438954240920395
N 11.992531008923848 6.923891006267117 8.567877994774046
Al 8.994398256692886 5.192918254700337 0.0
N 8.994398256692886 6.923891006267115 1.2239825706820069
Al 10.493464632808367 6.058404630483727 2.447965141364013
N 10.493464632808367 7.789377382050506 3.671947712046019
Al 11.992531008923848 6.923891006267116 4.895930282728026
N 11.992531008923848 8.654863757833896 6.119912853410031
Ti 13.491597385039329 7.789377382050508 7.3438954240920395
N 13.49159738503933 9.520350133617287 8.567877994774046
Al 10.493464632808365 7.789377382050505 0.0
N 10.493464632808365 9.520350133617285 1.223982570682006
Al 11.992531008923848 8.654863757833896 2.447965141364012
N 11.992531008923848 10.385836509400676 3.671947712046019
Ti 13.491597385039329 9.520350133617287 4.895930282728026
N 13.491597385039327 11.251322885184065 6.119912853410031
Al 14.99066376115481 10.385836509400676 7.343895424092038
N 14.990663761154812 12.116809260967454 8.567877994774044
Al 8.994398256692884 0.0 0.0
N 8.994398256692886 1.730972751566779 1.2239825706820064
Al 10.493464632808365 0.8654863757833899 2.4479651413640133
N 10.493464632808365 2.596459127350169 3.6719477120460193
Al 11.992531008923848 1.7309727515667794 4.895930282728026
N 11.992531008923848 3.461945503133558 6.119912853410031
Ti 19.48786288950125 12.982295636750841 7.3438954240920395
N 13.491597385039327 4.327431878916947 8.567877994774046
Al 10.493464632808365 2.5964591273501685 0.0
N 10.493464632808367 4.327431878916947 1.2239825706820069
Ti 11.992531008923846 3.461945503133558 2.447965141364013
N 11.992531008923846 5.192918254700338 3.671947712046019
Ti 13.491597385039329 4.327431878916948 4.895930282728026
N 13.491597385039327 6.058404630483726 6.119912853410031
Ti 14.990663761154808 5.192918254700337 7.3438954240920395
N 14.99066376115481 6.923891006267119 8.567877994774044
Ti 11.992531008923846 5.192918254700337 0.0
N 11.992531008923846 6.923891006267116 1.223982570682006
Al 13.491597385039329 6.058404630483727 2.447965141364012
N 13.491597385039327 7.789377382050506 3.671947712046019
Al 14.99066376115481 6.923891006267116 4.895930282728026
N 14.99066376115481 8.654863757833896 6.119912853410031
Al 16.489730137270293 7.789377382050509 7.343895424092038
N 16.48973013727029 9.520350133617287 8.567877994774046
Al 13.491597385039327 7.789377382050505 0.0
N 13.491597385039327 9.520350133617285 1.223982570682006
Ti 14.99066376115481 8.654863757833894 2.447965141364013
N 14.990663761154808 10.385836509400674 3.6719477120460198
Al 16.48973013727029 9.520350133617285 4.895930282728027
N 16.48973013727029 11.251322885184065 6.1199128534100335
Al 17.988796513385772 10.385836509400674 7.343895424092039
N 17.988796513385772 12.116809260967452 8.567877994774046

K_POINTS automatic
2 2 2 0 0 0


