&control
   calculation = 'relax',              ! Relaxerar atompositionerna men håller cellen fast
   prefix = 'TiZrN_x075_relax',         ! Unikt prefix för detta x-värde
   outdir = '../output/relax/tmp_x075/', ! Temporära QE-filer
   pseudo_dir = '../../pseudo/',       ! Pseudopotentialer relativt denna mapp
   restart_mode = 'from_scratch',      ! Startar från början
   disk_io = 'none',                   ! Minskar mängden sparade filer
   nstep = 8,                          ! Max antal relaxationssteg
   etot_conv_thr = 1E-4,               ! Energikonvergens för relaxation
   forc_conv_thr = 1E-3,               ! Kraftkonvergens för relaxation
   tstress = .true.,                   ! Skriver ut stress/tryck
   tprnfor = .true.,                   ! Skriver ut krafter
/

&system
   ibrav = 0,                          ! Cellvektorer anges explicit nedan
   nat = 64,                           ! 64 atomer: 32 metallplatser + 32 N
   ntyp = 3,                           ! Ti, Zr och N
   ecutwfc = 60,                       ! Våglfunktions-cutoff
   ecutrho = 240,                      ! Laddningstäthets-cutoff
   occupations = 'smearing',           ! Smearing används för robust konvergens
   smearing = 'gaussian',
   degauss = 0.005,
/

&electrons
   diagonalization = 'david',          ! Diagonaliseringsmetod
   conv_thr = 1E-6,                    ! Elektronisk konvergens
   mixing_mode = 'local-TF',
   mixing_beta = 0.2,
/

&ions
   ion_dynamics = 'bfgs',              ! BFGS-relaxering av atompositioner
/

ATOMIC_SPECIES
N 14.007 N.pbe-n-kjpaw_psl.1.0.0.UPF
Ti 47.867 Ti.pbe-spn-kjpaw_psl.1.0.0.UPF
Zr 91.224 Zr.pbe-spn-kjpaw_psl.1.0.0.UPF

CELL_PARAMETERS angstrom
9.004999999999999 0.0 0.0
0.0 9.004999999999999 0.0
0.0 0.0 9.004999999999999

ATOMIC_POSITIONS angstrom
Zr 0.0 0.0 0.0
N 2.2512499999999998 0.0 0.0
Zr 0.0 2.2512499999999998 2.2512499999999998
N 2.2512499999999998 2.2512499999999998 2.2512499999999998
Zr 2.2512499999999998 0.0 2.2512499999999998
N 0.0 0.0 2.2512499999999998
Zr 2.2512499999999998 2.2512499999999998 0.0
N 0.0 2.2512499999999998 0.0
Zr 0.0 0.0 4.5024999999999995
N 2.2512499999999998 0.0 4.5024999999999995
Zr 0.0 2.2512499999999998 6.753749999999999
N 2.2512499999999998 2.2512499999999998 6.753749999999999
Ti 2.2512499999999998 0.0 6.753749999999999
N 0.0 0.0 6.753749999999999
Zr 2.2512499999999998 2.2512499999999998 4.5024999999999995
N 0.0 2.2512499999999998 4.5024999999999995
Zr 0.0 4.5024999999999995 0.0
N 2.2512499999999998 4.5024999999999995 0.0
Zr 0.0 6.753749999999999 2.2512499999999998
N 2.2512499999999998 6.753749999999999 2.2512499999999998
Zr 2.2512499999999998 4.5024999999999995 2.2512499999999998
N 0.0 4.5024999999999995 2.2512499999999998
Zr 2.2512499999999998 6.753749999999999 0.0
N 0.0 6.753749999999999 0.0
Zr 0.0 4.5024999999999995 4.5024999999999995
N 2.2512499999999998 4.5024999999999995 4.5024999999999995
Zr 0.0 6.753749999999999 6.753749999999999
N 2.2512499999999998 6.753749999999999 6.753749999999999
Ti 2.2512499999999998 4.5024999999999995 6.753749999999999
N 0.0 4.5024999999999995 6.753749999999999
Zr 2.2512499999999998 6.753749999999999 4.5024999999999995
N 0.0 6.753749999999999 4.5024999999999995
Zr 4.5024999999999995 0.0 0.0
N 6.753749999999999 0.0 0.0
Ti 4.5024999999999995 2.2512499999999998 2.2512499999999998
N 6.753749999999999 2.2512499999999998 2.2512499999999998
Zr 6.753749999999999 0.0 2.2512499999999998
N 4.5024999999999995 0.0 2.2512499999999998
Ti 6.753749999999999 2.2512499999999998 0.0
N 4.5024999999999995 2.2512499999999998 0.0
Zr 4.5024999999999995 0.0 4.5024999999999995
N 6.753749999999999 0.0 4.5024999999999995
Zr 4.5024999999999995 2.2512499999999998 6.753749999999999
N 6.753749999999999 2.2512499999999998 6.753749999999999
Zr 6.753749999999999 0.0 6.753749999999999
N 4.5024999999999995 0.0 6.753749999999999
Zr 6.753749999999999 2.2512499999999998 4.5024999999999995
N 4.5024999999999995 2.2512499999999998 4.5024999999999995
Ti 4.5024999999999995 4.5024999999999995 0.0
N 6.753749999999999 4.5024999999999995 0.0
Zr 4.5024999999999995 6.753749999999999 2.2512499999999998
N 6.753749999999999 6.753749999999999 2.2512499999999998
Zr 6.753749999999999 4.5024999999999995 2.2512499999999998
N 4.5024999999999995 4.5024999999999995 2.2512499999999998
Ti 6.753749999999999 6.753749999999999 0.0
N 4.5024999999999995 6.753749999999999 0.0
Ti 4.5024999999999995 4.5024999999999995 4.5024999999999995
N 6.753749999999999 4.5024999999999995 4.5024999999999995
Ti 4.5024999999999995 6.753749999999999 6.753749999999999
N 6.753749999999999 6.753749999999999 6.753749999999999
Zr 6.753749999999999 4.5024999999999995 6.753749999999999
N 4.5024999999999995 4.5024999999999995 6.753749999999999
Zr 6.753749999999999 6.753749999999999 4.5024999999999995
N 4.5024999999999995 6.753749999999999 4.5024999999999995

K_POINTS automatic
2 2 2 0 0 0
