ATOMIC_SPECIES
N 14.007 N.pbe-n-kjpaw_psl.1.0.0.UPF
Ti 47.867 Ti.pbe-spn-kjpaw_psl.1.0.0.UPF
Zr 91.224 Zr.pbe-spn-kjpaw_psl.1.0.0.UPF

CELL_PARAMETERS angstrom
8.83 0.0 0.0
0.0 8.83 0.0
0.0 0.0 8.83

ATOMIC_POSITIONS angstrom
Ti 0.0 0.0 0.0
N 2.2075 0.0 0.0
Zr 0.0 2.2075 2.2075
N 2.2075 2.2075 2.2075
Zr 2.2075 0.0 2.2075
N 0.0 0.0 2.2075
Zr 2.2075 2.2075 0.0
N 0.0 2.2075 0.0
Zr 0.0 0.0 4.415
N 2.2075 0.0 4.415
Zr 0.0 2.2075 6.6225000000000005
N 2.2075 2.2075 6.6225000000000005
Zr 2.2075 0.0 6.6225000000000005
N 0.0 0.0 6.6225000000000005
Zr 2.2075 2.2075 4.415
N 0.0 2.2075 4.415
Ti 0.0 4.415 0.0
N 2.2075 4.415 0.0
Zr 0.0 6.6225000000000005 2.2075
N 2.2075 6.6225000000000005 2.2075
Ti 2.2075 4.415 2.2075
N 0.0 4.415 2.2075
Zr 2.2075 6.6225000000000005 0.0
N 0.0 6.6225000000000005 0.0
Zr 0.0 4.415 4.415
N 2.2075 4.415 4.415
Ti 0.0 6.6225000000000005 6.6225000000000005
N 2.2075 6.6225000000000005 6.6225000000000005
Zr 2.2075 4.415 6.6225000000000005
N 0.0 4.415 6.6225000000000005
Ti 2.2075 6.6225000000000005 4.415
N 0.0 6.6225000000000005 4.415
Ti 4.415 0.0 0.0
N 6.6225000000000005 0.0 0.0
Zr 4.415 2.2075 2.2075
N 6.6225000000000005 2.2075 2.2075
Ti 6.6225000000000005 0.0 2.2075
N 4.415 0.0 2.2075
Zr 6.6225000000000005 2.2075 0.0
N 4.415 2.2075 0.0
Zr 4.415 0.0 4.415
N 6.6225000000000005 0.0 4.415
Ti 4.415 2.2075 6.6225000000000005
N 6.6225000000000005 2.2075 6.6225000000000005
Ti 6.6225000000000005 0.0 6.6225000000000005
N 4.415 0.0 6.6225000000000005
Ti 6.6225000000000005 2.2075 4.415
N 4.415 2.2075 4.415
Ti 4.415 4.415 0.0
N 6.6225000000000005 4.415 0.0
Ti 4.415 6.6225000000000005 2.2075
N 6.6225000000000005 6.6225000000000005 2.2075
Zr 6.6225000000000005 4.415 2.2075
N 4.415 4.415 2.2075
Ti 6.6225000000000005 6.6225000000000005 0.0
N 4.415 6.6225000000000005 0.0
Zr 4.415 4.415 4.415
N 6.6225000000000005 4.415 4.415
Ti 4.415 6.6225000000000005 6.6225000000000005
N 6.6225000000000005 6.6225000000000005 6.6225000000000005
Ti 6.6225000000000005 4.415 6.6225000000000005
N 4.415 4.415 6.6225000000000005
Ti 6.6225000000000005 6.6225000000000005 4.415
N 4.415 6.6225000000000005 4.415

K_POINTS automatic
2 2 2 0 0 0
