ATOMIC_SPECIES
N 14.007 N.pbe-n-kjpaw_psl.1.0.0.UPF
Ti 47.867 Ti.pbe-spn-kjpaw_psl.1.0.0.UPF
Zr 91.224 Zr.pbe-spn-kjpaw_psl.1.0.0.UPF

CELL_PARAMETERS angstrom
8.655000000000001 0.0 0.0
0.0 8.655000000000001 0.0
0.0 0.0 8.655000000000001

ATOMIC_POSITIONS angstrom
Zr 0.0 0.0 0.0
N 2.16375 0.0 0.0
Ti 0.0 2.16375 2.16375
N 2.16375 2.16375 2.16375
Zr 2.16375 0.0 2.16375
N 0.0 0.0 2.16375
Ti 2.16375 2.16375 0.0
N 0.0 2.16375 0.0
Ti 0.0 0.0 4.3275
N 2.16375 0.0 4.3275
Ti 0.0 2.16375 6.491250000000001
N 2.16375 2.16375 6.491250000000001
Ti 2.16375 0.0 6.491250000000001
N 0.0 0.0 6.491250000000001
Zr 2.16375 2.16375 4.3275
N 0.0 2.16375 4.3275
Ti 0.0 4.3275 0.0
N 2.16375 4.3275 0.0
Ti 0.0 6.491250000000001 2.16375
N 2.16375 6.491250000000001 2.16375
Ti 2.16375 4.3275 2.16375
N 0.0 4.3275 2.16375
Ti 2.16375 6.491250000000001 0.0
N 0.0 6.491250000000001 0.0
Zr 0.0 4.3275 4.3275
N 2.16375 4.3275 4.3275
Ti 0.0 6.491250000000001 6.491250000000001
N 2.16375 6.491250000000001 6.491250000000001
Ti 2.16375 4.3275 6.491250000000001
N 0.0 4.3275 6.491250000000001
Ti 2.16375 6.491250000000001 4.3275
N 0.0 6.491250000000001 4.3275
Ti 4.3275 0.0 0.0
N 6.491250000000001 0.0 0.0
Zr 4.3275 2.16375 2.16375
N 6.491250000000001 2.16375 2.16375
Zr 6.491250000000001 0.0 2.16375
N 4.3275 0.0 2.16375
Ti 6.491250000000001 2.16375 0.0
N 4.3275 2.16375 0.0
Ti 4.3275 0.0 4.3275
N 6.491250000000001 0.0 4.3275
Zr 4.3275 2.16375 6.491250000000001
N 6.491250000000001 2.16375 6.491250000000001
Ti 6.491250000000001 0.0 6.491250000000001
N 4.3275 0.0 6.491250000000001
Zr 6.491250000000001 2.16375 4.3275
N 4.3275 2.16375 4.3275
Ti 4.3275 4.3275 0.0
N 6.491250000000001 4.3275 0.0
Ti 4.3275 6.491250000000001 2.16375
N 6.491250000000001 6.491250000000001 2.16375
Ti 6.491250000000001 4.3275 2.16375
N 4.3275 4.3275 2.16375
Ti 6.491250000000001 6.491250000000001 0.0
N 4.3275 6.491250000000001 0.0
Ti 4.3275 4.3275 4.3275
N 6.491250000000001 4.3275 4.3275
Ti 4.3275 6.491250000000001 6.491250000000001
N 6.491250000000001 6.491250000000001 6.491250000000001
Ti 6.491250000000001 4.3275 6.491250000000001
N 4.3275 4.3275 6.491250000000001
Ti 6.491250000000001 6.491250000000001 4.3275
N 4.3275 6.491250000000001 4.3275

K_POINTS automatic
2 2 2 0 0 0
